000 000 000 000 000 000 000 000 -99 000 000 000 000 000 000 000 000 000 -99 -99 000 000 000 000 000 -99 -99 000 -99 -99 -99
000 000 000 000 000 000 000 000 000 -99 000 -99 -99 000 000 000 000 000 -99 -99 000 000 000 000 000 000 -99 000 -99 -99 -99
000 000 000 000 000 000 000 000 000 -99 -99 000 -99 -99 000 000 000 000 -99 -99 000 000 000 001 000 000 000 000 000 -99 -99
000 000 000 000 000 000 000 000 000 000 -99 000 000 000 -99 000 000 -99 -99 000 000 000 000 002 001 000 000 000 001 -99 001
000 000 000 001 001 000 000 000 000 000 000 000 000 000 000 -99 -99 -99 000 000 000 000 001 003 001 000 000 001 003 005 002
001 000 000 001 001 000 000 000 000 000 000 000 000 000 000 -99 -99 -99 000 000 000 001 003 003 002 002 001 001 003 004 006
000 000 001 000 001 001 000 000 000 000 000 000 000 000 000 000 -99 000 000 000 000 001 002 003 002 002 001 002 003 003 003
001 001 000 001 002 001 000 000 000 000 001 000 000 000 000 000 -99 000 000 000 000 000 001 002 002 002 002 005 003 002 002
001 001 001 001 003 001 000 000 001 001 001 000 000 000 000 000 000 000 000 000 000 000 000 001 002 001 002 004 004 001 001
000 001 001 001 002 001 001 001 000 000 001 000 000 000 000 000 000 000 000 000 000 000 -99 000 001 000 001 003 003 001 000
000 000 001 001 001 001 001 001 000 000 003 001 000 000 000 000 000 000 000 000 000 000 -99 000 000 001 001 003 001 000 000
000 000 001 000 001 000 001 002 000 001 003 001 001 000 000 000 000 000 000 000 000 000 -99 -99 000 001 001 002 002 000 000
000 000 000 000 000 000 002 001 001 001 002 001 001 001 000 000 000 000 000 000 000 000 -99 -99 -99 000 000 001 002 000 000
000 000 000 000 000 000 001 001 001 001 001 001 000 000 000 000 000 000 000 000 000 -99 -99 000 000 000 000 000 000 000 000
000 000 000 000 000 000 000 001 002 001 001 000 000 000 000 000 000 000 000 000 -99 -99 -99 000 000 000 000 000 000 000 000
000 000 000 000 000 000 000 000 002 002 001 001 000 000 000 000 001 000 000 000 -99 000 -99 000 000 000 000 000 000 000 -99
000 000 -99 000 000 000 000 000 001 003 002 002 002 001 000 000 001 000 000 000 -99 -99 000 -99 000 000 000 000 000 000 -99
000 000 000 -99 -99 000 000 000 000 001 000 001 002 001 001 000 000 000 000 000 -99 -99 000 -99 -99 -99 -99 -99 000 000 -99
000 000 000 000 -99 -99 000 000 000 000 000 000 001 001 001 000 000 000 000 000 -99 -99 -99 -99 -99 -99 -99 -99 -99 -99 -99
000 000 000 000 000 -99 -99 000 000 000 000 000 000 000 000 000 001 000 000 000 000 000 000 -99 -99 -99 -99 -99 -99 -99 -99
000 000 000 000 000 000 -99 -99 000 000 000 000 000 000 000 000 000 000 000 000 000 000 000 -99 -99 -99 -99 -99 -99 -99 -99
000 000 000 000 000 000 -99 000 000 000 -99 000 000 000 000 000 000 000 000 000 000 000 000 -99 -99 -99 -99 -99 -99 -99 -99
000 000 000 000 000 000 000 000 000 000 -99 -99 000 000 000 000 000 000 000 000 000 000 000 -99 -99 -99 -99 -99 -99 -99 -99
000 000 000 000 000 000 -99 000 000 000 -99 -99 000 000 000 000 000 000 000 000 000 000 000 -99 -99 -99 -99 -99 -99 -99 -99
000 000 000 000 000 000 000 000 000 000 000 000 000 000 000 000 000 000 000 000 000 000 000 -99 -99 -99 -99 -99 -99 -99 -99
000 000 000 000 000 000 000 000 000 000 000 001 000 000 000 000 000 000 000 000 000 000 -99 -99 -99 -99 -99 -99 -99 -99 000
000 000 000 000 000 000 000 000 000 000 001 003 001 001 000 001 000 000 000 000 000 000 000 -99 -99 -99 -99 -99 -99 -99 000
000 000 000 000 000 000 -99 000 000 002 004 003 002 002 002 003 001 000 000 000 000 000 000 -99 -99 -99 -99 -99 -99 -99 000
000 000 000 000 000 000 -99 000 002 005 005 003 002 004 004 005 002 000 000 000 000 000 -99 003 -99 -99 011 -99 -99 -99 000
000 000 000 000 000 000 -99 000 004 008 004 005 004 006 009 007 003 001 000 000 000 000 003 006 015 010 018 017 008 010 002
000 000 000 000 000 -99 000 000 002 012 013 007 006 007 007 011 004 001 001 000 000 000 003 006 019 015 031 017 008 010 004
000 000 000 000 000 -99 000 001 003 012 008 009 010 006 010 018 004 001 001 000 000 000 003 009 022 028 041 031 023 008 005
000 000 000 000 000 000 000 001 002 005 006 008 010 006 006 008 004 001 002 001 000 000 001 006 020 026 033 028 011 007 003
000 000 000 000 000 000 000 000 001 001 004 010 009 006 005 007 004 002 002 001 001 000 000 002 019 017 012 006 011 010 004
000 000 000 000 000 000 000 000 000 000 002 010 004 004 003 004 003 002 002 002 001 000 000 001 005 006 006 007 010 013 005
000 000 000 000 000 000 000 000 000 000 001 005 003 002 003 003 003 002 001 001 001 000 000 000 001 001 003 007 018 010 017
000 000 000 000 000 000 000 000 000 000 001 005 004 002 001 001 003 002 001 000 001 000 000 000 000 000 001 006 006 022 015
000 000 000 000 000 000 000 000 000 001 003 004 003 003 002 003 003 002 001 000 000 000 000 000 000 000 000 001 004 017 014
000 000 000 000 000 000 000 000 000 001 003 004 003 006 002 001 001 001 000 000 000 000 000 000 000 000 000 000 002 008 010
000 000 000 000 000 000 000 000 000 001 002 002 002 006 003 002 001 001 000 000 001 000 001 000 000 000 000 000 002 004 006
000 000 000 000 000 000 000 000 000 000 001 002 001 004 001 002 001 000 000 000 000 000 000 000 000 000 000 000 001 003 001
000 000 000 000 000 000 000 000 000 000 000 000 001 002 002 002 001 000 000 000 000 000 000 000 000 000 000 000 000 001 000
000 000 000 000 000 000 000 000 000 000 000 000 001 001 002 001 000 000 000 000 000 000 000 000 000 000 000 000 000 001 000
000 000 000 000 000 000 000 000 000 000 000 000 000 000 001 000 000 000 000 000 000 000 000 000 000 000 000 000 000 001 000
000 000 000 000 000 000 000 000 000 000 000 000 000 000 000 000 000 000 000 000 000 000 000 000 000 000 000 000 000 -99 000
000 000 000 000 000 000 -99 -99 000 000 000 000 000 000 000 000 000 000 000 000 000 000 000 000 000 000 000 000 -99 -99 000
000 000 000 000 000 000 000 -99 000 000 000 000 000 000 000 000 000 000 000 000 000 000 000 001 000 002 000 -99 -99 -99 000
000 000 000 000 000 000 000 -99 000 000 000 000 000 000 000 000 -99 000 000 000 000 000 000 000 003 000 000 000 000 -99 -99
000 000 000 000 -99 000 000 000 000 000 -99 000 000 000 000 000 000 000 000 000 000 -99 000 003 005 000 000 000 000 -99 -99
-99 -99 -99 -99 000 000 000 000 000 000 -99 000 000 000 000 000 000 000 000 000 000 000 001 002 001 001 001 000 000 -99 -99
-99 -99 -99 -99 -99 000 000 000 000 000 -99 -99 000 000 000 000 000 001 000 000 000 000 000 001 000 002 003 001 000 -99 -99
-99 -99 000 -99 -99 000 000 000 000 000 -99 -99 000 000 000 001 003 002 001 000 000 000 000 000 000 003 002 001 000 000 -99
-99 000 000 000 -99 -99 000 000 000 -99 -99 000 000 000 000 002 002 002 001 000 000 000 000 -99 000 002 001 000 000 -99 -99
000 000 000 -99 -99 -99 -99 -99 -99 -99 000 000 000 000 000 002 002 003 000 000 000 000 -99 -99 001 001 000 000 000 -99 -99
000 000 000 000 000 -99 -99 -99 -99 000 -99 -99 -99 000 000 002 005 005 002 000 000 -99 -99 -99 -99 000 000 000 -99 -99 -99
